c Generated map
c Size: 12 * 12, weights in range: 1 to 10, walls: True, with ratio 0.05
c dim 4 of 5
c
p sp 144 239
c graph contains 144 nodes and 239 arcs
c
a 1 13 7
a 13 1 7
a 1 2 3
a 2 1 3
a 2 14 4
a 14 2 4
a 2 3 5
a 3 2 5
a 3 15 2
a 15 3 2
a 3 4 9
a 4 3 9
a 4 16 5
a 16 4 5
a 4 5 1
a 5 4 1
a 5 17 7
a 17 5 7
a 5 6 10
a 6 5 10
a 6 18 8
a 18 6 8
a 6 7 10
a 7 6 10
a 7 19 7
a 19 7 7
a 7 8 2
a 8 7 2
a 8 20 3
a 20 8 3
a 8 9 2
a 9 8 2
a 9 21 2
a 21 9 2
a 9 10 8
a 10 9 8
a 10 22 5
a 22 10 5
a 10 11 2
a 11 10 2
a 11 23 1
a 23 11 1
a 11 12 1
a 12 11 1
a 12 24 3
a 24 12 3
a 13 25 9
a 25 13 9
a 13 14 1
a 14 13 1
a 14 26 8
a 26 14 8
a 14 15 8
a 15 14 8
a 15 27 8
a 27 15 8
a 15 16 8
a 16 15 8
a 16 28 4
a 28 16 4
a 16 17 3
a 17 16 3
a 17 29 10
a 29 17 10
a 17 18 2
a 18 17 2
a 18 30 1
a 30 18 1
a 18 19 4
a 19 18 4
a 19 20 1
a 20 19 1
a 20 32 2
a 32 20 2
a 20 21 7
a 21 20 7
a 21 33 1
a 33 21 1
a 21 22 6
a 22 21 6
a 22 34 5
a 34 22 5
a 22 23 1
a 23 22 1
a 23 35 2
a 35 23 2
a 23 24 5
a 24 23 5
a 24 36 10
a 36 24 10
a 25 37 6
a 37 25 6
a 25 26 7
a 26 25 7
a 26 38 9
a 38 26 9
a 26 27 5
a 27 26 5
a 27 39 3
a 39 27 3
a 27 28 3
a 28 27 3
a 28 40 4
a 40 28 4
a 28 29 7
a 29 28 7
a 29 41 7
a 41 29 7
a 29 30 8
a 30 29 8
a 30 42 2
a 42 30 2
a 32 44 9
a 44 32 9
a 32 33 10
a 33 32 10
a 33 45 2
a 45 33 2
a 33 34 10
a 34 33 10
a 34 46 3
a 46 34 3
a 34 35 3
a 35 34 3
a 35 47 4
a 47 35 4
a 35 36 10
a 36 35 10
a 36 48 9
a 48 36 9
a 37 49 5
a 49 37 5
a 37 38 6
a 38 37 6
a 38 50 5
a 50 38 5
a 38 39 1
a 39 38 1
a 39 51 6
a 51 39 6
a 39 40 1
a 40 39 1
a 40 52 9
a 52 40 9
a 40 41 1
a 41 40 1
a 41 53 6
a 53 41 6
a 41 42 2
a 42 41 2
a 42 54 7
a 54 42 7
a 42 43 7
a 43 42 7
a 43 55 4
a 55 43 4
a 43 44 9
a 44 43 9
a 44 56 7
a 56 44 7
a 44 45 5
a 45 44 5
a 45 57 10
a 57 45 10
a 45 46 4
a 46 45 4
a 46 58 1
a 58 46 1
a 46 47 9
a 47 46 9
a 47 59 3
a 59 47 3
a 47 48 4
a 48 47 4
a 49 61 4
a 61 49 4
a 49 50 10
a 50 49 10
a 50 62 2
a 62 50 2
a 50 51 6
a 51 50 6
a 51 63 2
a 63 51 2
a 51 52 9
a 52 51 9
a 52 64 10
a 64 52 10
a 52 53 3
a 53 52 3
a 53 65 8
a 65 53 8
a 53 54 3
a 54 53 3
a 54 55 4
a 55 54 4
a 55 67 3
a 67 55 3
a 55 56 6
a 56 55 6
a 56 68 4
a 68 56 4
a 56 57 8
a 57 56 8
a 57 69 6
a 69 57 6
a 57 58 6
a 58 57 6
a 58 59 3
a 59 58 3
a 59 71 8
a 71 59 8
a 61 73 1
a 73 61 1
a 61 62 8
a 62 61 8
a 62 74 9
a 74 62 9
a 62 63 8
a 63 62 8
a 63 75 10
a 75 63 10
a 63 64 3
a 64 63 3
a 64 76 5
a 76 64 5
a 64 65 1
a 65 64 1
a 65 77 7
a 77 65 7
a 67 79 2
a 79 67 2
a 67 68 3
a 68 67 3
a 68 80 9
a 80 68 9
a 68 69 1
a 69 68 1
a 69 81 2
a 81 69 2
a 71 83 1
a 83 71 1
a 71 72 9
a 72 71 9
a 72 84 5
a 84 72 5
a 73 85 9
a 85 73 9
a 73 74 2
a 74 73 2
a 74 86 10
a 86 74 10
a 74 75 6
a 75 74 6
a 75 87 10
a 87 75 10
a 75 76 6
a 76 75 6
a 76 88 9
a 88 76 9
a 76 77 8
a 77 76 8
a 77 89 5
a 89 77 5
a 77 78 6
a 78 77 6
a 78 90 5
a 90 78 5
a 78 79 9
a 79 78 9
a 79 91 7
a 91 79 7
a 79 80 5
a 80 79 5
a 80 92 6
a 92 80 6
a 80 81 5
a 81 80 5
a 81 93 9
a 93 81 9
a 81 82 4
a 82 81 4
a 82 94 7
a 94 82 7
a 82 83 10
a 83 82 10
a 83 95 7
a 95 83 7
a 83 84 9
a 84 83 9
a 84 96 2
a 96 84 2
a 85 97 6
a 97 85 6
a 85 86 9
a 86 85 9
a 86 98 4
a 98 86 4
a 86 87 3
a 87 86 3
a 87 99 5
a 99 87 5
a 87 88 7
a 88 87 7
a 88 100 8
a 100 88 8
a 88 89 6
a 89 88 6
a 89 101 7
a 101 89 7
a 89 90 9
a 90 89 9
a 90 102 5
a 102 90 5
a 90 91 7
a 91 90 7
a 91 103 8
a 103 91 8
a 91 92 8
a 92 91 8
a 92 104 1
a 104 92 1
a 92 93 9
a 93 92 9
a 93 105 9
a 105 93 9
a 93 94 2
a 94 93 2
a 94 95 8
a 95 94 8
a 95 107 5
a 107 95 5
a 95 96 6
a 96 95 6
a 96 108 10
a 108 96 10
a 97 109 3
a 109 97 3
a 97 98 10
a 98 97 10
a 98 110 6
a 110 98 6
a 98 99 4
a 99 98 4
a 99 111 7
a 111 99 7
a 99 100 4
a 100 99 4
a 100 112 8
a 112 100 8
a 100 101 2
a 101 100 2
a 101 113 1
a 113 101 1
a 101 102 8
a 102 101 8
a 102 114 5
a 114 102 5
a 102 103 4
a 103 102 4
a 103 115 2
a 115 103 2
a 103 104 1
a 104 103 1
a 104 116 2
a 116 104 2
a 104 105 2
a 105 104 2
a 105 117 5
a 117 105 5
a 107 119 10
a 119 107 10
a 107 108 2
a 108 107 2
a 108 120 2
a 120 108 2
a 109 121 3
a 121 109 3
a 109 110 7
a 110 109 7
a 110 111 3
a 111 110 3
a 111 123 7
a 123 111 7
a 111 112 7
a 112 111 7
a 112 124 5
a 124 112 5
a 112 113 6
a 113 112 6
a 113 125 4
a 125 113 4
a 113 114 10
a 114 113 10
a 114 126 8
a 126 114 8
a 114 115 8
a 115 114 8
a 115 127 9
a 127 115 9
a 115 116 3
a 116 115 3
a 116 128 6
a 128 116 6
a 116 117 10
a 117 116 10
a 117 129 2
a 129 117 2
a 117 118 10
a 118 117 10
a 118 130 5
a 130 118 5
a 118 119 8
a 119 118 8
a 119 131 1
a 131 119 1
a 119 120 7
a 120 119 7
a 120 132 8
a 132 120 8
a 121 133 2
a 133 121 2
a 123 135 5
a 135 123 5
a 123 124 7
a 124 123 7
a 124 136 4
a 136 124 4
a 124 125 8
a 125 124 8
a 125 137 5
a 137 125 5
a 125 126 6
a 126 125 6
a 126 138 1
a 138 126 1
a 126 127 9
a 127 126 9
a 127 139 4
a 139 127 4
a 127 128 5
a 128 127 5
a 128 140 5
a 140 128 5
a 128 129 1
a 129 128 1
a 129 141 5
a 141 129 5
a 129 130 1
a 130 129 1
a 130 142 1
a 142 130 1
a 130 131 9
a 131 130 9
a 131 143 6
a 143 131 6
a 131 132 7
a 132 131 7
a 132 144 4
a 144 132 4
a 135 136 8
a 136 135 8
a 136 137 1
a 137 136 1
a 137 138 1
a 138 137 1
a 138 139 2
a 139 138 2
a 139 140 9
a 140 139 9
a 140 141 1
a 141 140 1
a 141 142 4
a 142 141 4
a 142 143 7
a 143 142 7
a 143 144 6
a 144 143 6
